 
data_wiedem34

_audit_creation_method           SHELXL-97
_chemical_name_systematic        
;dichlorido(1-{6-[1,1-di(pyridin-2-yl)ethyl]pyridin-2-yl}-
N,N-dimethylmethanamine)cobalt(II)--methanol(2/1)
;
_chemical_name_common            
;dichlorido(1-{6-[1,1-di(pyridin-2-yl)ethyl]pyridin-2-yl}-
N,N-dimethylmethanamine)cobalt(II)--methanol(2/1)
;
_chemical_formula_moiety         '2(C20 H22 Cl2 Co N4), C H4 O'
_chemical_formula_sum            'C41 H48 Cl4 Co2 N8 O'
_exptl_crystal_recrystallization_method 
'isothermal diffusion of diethylether into methanolic solution'
_chemical_melting_point          ?

_exptl_crystal_description       prism
_exptl_crystal_colour            'dark violet'

_diffrn_ambient_temperature      150(2)
_chemical_formula_weight         928.53

loop_
_atom_type_symbol
_atom_type_description
_atom_type_scat_dispersion_real
_atom_type_scat_dispersion_imag
_atom_type_scat_source
C C 0.0033 0.0016 'International Tables Vol C Tables 4.2.6.8 and 6.1.1.4'
H H 0.0000 0.0000 'International Tables Vol C Tables 4.2.6.8 and 6.1.1.4'
N N 0.0061 0.0033 'International Tables Vol C Tables 4.2.6.8 and 6.1.1.4'
Cl Cl 0.1484 0.1585 'International Tables Vol C Tables 4.2.6.8 and 6.1.1.4'
Co Co 0.3494 0.9721 'International Tables Vol C Tables 4.2.6.8 and 6.1.1.4'
O O 0.0106 0.0060 'International Tables Vol C Tables 4.2.6.8 and 6.1.1.4'

_symmetry_cell_setting           monoclinic
_symmetry_space_group_name_H-M   'P 21/c'
_symmetry_int_tables_number      14
_chemical_absolute_configuration .

loop_
_symmetry_equiv_pos_as_xyz
'x, y, z'
'-x, y+1/2, -z+1/2'
'-x, -y, -z'
'x, -y-1/2, z-1/2'

_cell_length_a                   11.1848(4)
_cell_length_b                   9.9247(5)
_cell_length_c                   18.7364(8)
_cell_angle_alpha                90.00
_cell_angle_beta                 93.368(4)
_cell_angle_gamma                90.00
_cell_volume                     2076.26(16)
_cell_formula_units_Z            2
_cell_measurement_temperature    150(2)
_cell_measurement_reflns_used    5895
_cell_measurement_theta_min      3.4314
_cell_measurement_theta_max      32.3523
_exptl_crystal_size_max          0.21
_exptl_crystal_size_mid          0.16
_exptl_crystal_size_min          0.15
_exptl_crystal_density_meas      ?
_exptl_crystal_density_diffrn    1.485
_exptl_crystal_density_method    'not measured'
_exptl_crystal_F_000             960
_exptl_absorpt_coefficient_mu    1.100
_exptl_absorpt_correction_type   multi-scan
_exptl_absorpt_correction_T_min  0.88457
_exptl_absorpt_correction_T_max  1.00000
_exptl_absorpt_process_details   
;
CrysAlisPro, Oxford Diffraction Ltd.,
Version 1.171.33.66 (release 28-04-2010 CrysAlis171 .NET)
(compiled Apr 28 2010,14:27:37)
Empirical absorption correction using spherical harmonics,
 implemented in SCALE3 ABSPACK scaling algorithm.
;

_exptl_special_details           
;
 ?
;
_diffrn_radiation_probe          x-ray
_diffrn_radiation_type           MoK\a
_diffrn_radiation_wavelength     0.71073
_diffrn_source                   'Enhance (Mo) X-ray Source'
_diffrn_radiation_monochromator  graphite
_diffrn_measurement_device_type  'Xcalibur, Sapphire3'
_diffrn_measurement_method       '\w scans'
_diffrn_detector_area_resol_mean 16.3031
_diffrn_standards_number         ?
_diffrn_standards_interval_count ?
_diffrn_standards_interval_time  ?
_diffrn_standards_decay_%        ?
_diffrn_reflns_number            8915
_diffrn_reflns_av_R_equivalents  0.0231
_diffrn_reflns_av_sigmaI/netI    0.0308
_diffrn_reflns_limit_h_min       -9
_diffrn_reflns_limit_h_max       13
_diffrn_reflns_limit_k_min       -11
_diffrn_reflns_limit_k_max       11
_diffrn_reflns_limit_l_min       -22
_diffrn_reflns_limit_l_max       21
_diffrn_reflns_theta_min         3.44
_diffrn_reflns_theta_max         25.00
_reflns_number_total             3651
_reflns_number_gt                3059
_reflns_threshold_expression     >2\s(I)

_computing_data_collection
;
CrysAlisPro, Oxford Diffraction Ltd.,
Version 1.171.33.66 (release 28-04-2010 CrysAlis171 .NET)
(compiled Apr 28 2010,14:27:37)
;
_computing_cell_refinement
;
CrysAlisPro, Oxford Diffraction Ltd.,
Version 1.171.33.66 (release 28-04-2010 CrysAlis171 .NET)
(compiled Apr 28 2010,14:27:37)
;
_computing_data_reduction
;
CrysAlisPro, Oxford Diffraction Ltd.,
Version 1.171.33.66 (release 28-04-2010 CrysAlis171 .NET)
(compiled Apr 28 2010,14:27:37)
;
_computing_structure_solution    'SHELXS-97 (Sheldrick, 2008)'
_computing_structure_refinement  'SHELXL-97 (Sheldrick, 2008)'
_computing_molecular_graphics    'Ortep-3 for Windows (Farrugia, 1997)'
_computing_publication_material  'CIFTAB (Sheldrick, 2008)'

_refine_special_details          
;
 Refinement of F^2^ against ALL reflections.  The weighted R-factor wR and
 goodness of fit S are based on F^2^, conventional R-factors R are based
 on F, with F set to zero for negative F^2^. The threshold expression of
 F^2^ > 2\s(F^2^) is used only for calculating R-factors(gt) etc. and is
 not relevant to the choice of reflections for refinement.  R-factors based
 on F^2^ are statistically about twice as large as those based on F, and R-
 factors based on ALL data will be even larger.
 The solvent methanol moiety occupies a center of inversion. It has been
 treated with the instruction PART -1 using a s.o.f. of 0.5.
;

_refine_ls_structure_factor_coef Fsqd
_refine_ls_matrix_type           full
_refine_ls_weighting_scheme      calc
_refine_ls_weighting_details     
'calc w=1/[\s^2^(Fo^2^)+(0.0465P)^2^+2.4742P] where P=(Fo^2^+2Fc^2^)/3'
_atom_sites_solution_primary     direct
_atom_sites_solution_secondary   difmap
_atom_sites_solution_hydrogens   geom
_refine_ls_hydrogen_treatment    constr
_refine_ls_extinction_method     none
_refine_ls_extinction_coef       ?
_refine_ls_number_reflns         3651
_refine_ls_number_parameters     267
_refine_ls_number_restraints     0
_refine_ls_R_factor_all          0.0502
_refine_ls_R_factor_gt           0.0393
_refine_ls_wR_factor_ref         0.0968
_refine_ls_wR_factor_gt          0.0932
_refine_ls_goodness_of_fit_ref   1.040
_refine_ls_restrained_S_all      1.040
_refine_ls_shift/su_max          0.001
_refine_ls_shift/su_mean         0.000

loop_
_atom_site_label
_atom_site_type_symbol
_atom_site_fract_x
_atom_site_fract_y
_atom_site_fract_z
_atom_site_U_iso_or_equiv
_atom_site_adp_type
_atom_site_occupancy
_atom_site_symmetry_multiplicity
_atom_site_calc_flag
_atom_site_refinement_flags
_atom_site_disorder_assembly
_atom_site_disorder_group
C11 C 0.8223(3) 0.1202(3) 0.28964(16) 0.0265(7) Uani 1 1 d . . .
C12 C 0.8022(3) 0.1002(4) 0.36106(17) 0.0370(8) Uani 1 1 d . . .
H12 H 0.8466 0.1489 0.3973 0.044 Uiso 1 1 calc R . .
C13 C 0.7171(3) 0.0087(5) 0.37825(17) 0.0458(10) Uani 1 1 d . . .
H13 H 0.6999 -0.0040 0.4268 0.055 Uiso 1 1 calc R . .
C14 C 0.6552(3) -0.0664(4) 0.32470(17) 0.0364(8) Uani 1 1 d . . .
H14 H 0.5976 -0.1319 0.3364 0.044 Uiso 1 1 calc R . .
C15 C 0.6800(2) -0.0427(3) 0.25417(15) 0.0212(6) Uani 1 1 d . . .
C16 C 0.6233(2) -0.1242(3) 0.19029(15) 0.0229(6) Uani 1 1 d . . .
C17 C 0.5527(3) -0.2439(4) 0.21870(19) 0.0377(8) Uani 1 1 d . . .
H17A H 0.6069 -0.3016 0.2481 0.057 Uiso 1 1 calc R . .
H17B H 0.5173 -0.2960 0.1784 0.057 Uiso 1 1 calc R . .
H17C H 0.4890 -0.2102 0.2477 0.057 Uiso 1 1 calc R . .
C21 C 0.5229(3) 0.1504(4) 0.06516(17) 0.0360(8) Uani 1 1 d . . .
H21 H 0.5601 0.2229 0.0419 0.043 Uiso 1 1 calc R . .
C22 C 0.4015(3) 0.1286(5) 0.0513(2) 0.0453(10) Uani 1 1 d . . .
H22 H 0.3560 0.1842 0.0186 0.054 Uiso 1 1 calc R . .
C23 C 0.3488(3) 0.0248(5) 0.0860(2) 0.0505(11) Uani 1 1 d . . .
H23 H 0.2652 0.0093 0.0785 0.061 Uiso 1 1 calc R . .
C24 C 0.4171(3) -0.0578(4) 0.1322(2) 0.0404(9) Uani 1 1 d . . .
H24 H 0.3812 -0.1305 0.1561 0.049 Uiso 1 1 calc R . .
C25 C 0.5393(2) -0.0322(3) 0.14295(16) 0.0247(7) Uani 1 1 d . . .
C31 C 0.8777(3) -0.1309(3) 0.06897(15) 0.0271(7) Uani 1 1 d . . .
H31 H 0.9278 -0.0670 0.0476 0.033 Uiso 1 1 calc R . .
C32 C 0.8927(3) -0.2655(3) 0.05320(16) 0.0294(7) Uani 1 1 d . . .
H32 H 0.9510 -0.2931 0.0213 0.035 Uiso 1 1 calc R . .
C33 C 0.8222(3) -0.3579(3) 0.08424(16) 0.0298(7) Uani 1 1 d . . .
H33 H 0.8309 -0.4513 0.0746 0.036 Uiso 1 1 calc R . .
C34 C 0.7374(3) -0.3135(3) 0.13013(16) 0.0260(7) Uani 1 1 d . . .
H34 H 0.6885 -0.3769 0.1527 0.031 Uiso 1 1 calc R . .
C35 C 0.7239(2) -0.1763(3) 0.14316(14) 0.0204(6) Uani 1 1 d . . .
C40 C 0.9118(3) 0.2215(4) 0.26477(16) 0.0312(7) Uani 1 1 d . . .
H40A H 0.8768 0.3130 0.2664 0.037 Uiso 1 1 calc R . .
H40B H 0.9844 0.2197 0.2977 0.037 Uiso 1 1 calc R . .
C42 C 1.0311(3) 0.0798(4) 0.19211(19) 0.0356(8) Uani 1 1 d . . .
H42A H 1.0516 0.0591 0.1432 0.053 Uiso 1 1 calc R . .
H42B H 0.9944 0.0006 0.2131 0.053 Uiso 1 1 calc R . .
H42C H 1.1039 0.1044 0.2208 0.053 Uiso 1 1 calc R . .
C43 C 1.0038(3) 0.3133(4) 0.16182(19) 0.0384(8) Uani 1 1 d . . .
H43A H 1.0755 0.3362 0.1920 0.058 Uiso 1 1 calc R . .
H43B H 0.9476 0.3892 0.1610 0.058 Uiso 1 1 calc R . .
H43C H 1.0266 0.2946 0.1131 0.058 Uiso 1 1 calc R . .
N10 N 0.7596(2) 0.0530(2) 0.23795(12) 0.0205(5) Uani 1 1 d . . .
N20 N 0.5904(2) 0.0720(3) 0.11061(13) 0.0265(6) Uani 1 1 d . . .
N30 N 0.7953(2) -0.0850(3) 0.11329(12) 0.0211(5) Uani 1 1 d . . .
N41 N 0.9462(2) 0.1929(3) 0.19096(14) 0.0287(6) Uani 1 1 d . . .
Cl1 Cl 0.83076(7) 0.19472(10) 0.02042(4) 0.0374(2) Uani 1 1 d . . .
Cl2 Cl 0.69160(7) 0.35351(8) 0.16809(5) 0.0379(2) Uani 1 1 d . . .
Co1 Co 0.77089(3) 0.13078(4) 0.13422(2) 0.02056(13) Uani 1 1 d . . .
C1 C 0.5143(13) 0.5545(17) 0.0230(10) 0.054(4) Uani 0.50 1 d P A -1
H1A H 0.5782 0.5976 -0.0024 0.081 Uiso 0.50 1 calc PR A -1
H1B H 0.5498 0.4937 0.0597 0.081 Uiso 0.50 1 calc PR A -1
H1C H 0.4670 0.6237 0.0457 0.081 Uiso 0.50 1 calc PR A -1
O1 O 0.4385(9) 0.4791(13) -0.0266(7) 0.060(3) Uani 0.50 1 d P A -1
H1 H 0.4176 0.5280 -0.0617 0.090 Uiso 0.50 1 calc PR A -1

loop_
_atom_site_aniso_label
_atom_site_aniso_U_11
_atom_site_aniso_U_22
_atom_site_aniso_U_33
_atom_site_aniso_U_23
_atom_site_aniso_U_13
_atom_site_aniso_U_12
C11 0.0283(15) 0.0254(17) 0.0249(15) -0.0031(13) -0.0054(12) 0.0052(13)
C12 0.0368(18) 0.049(2) 0.0248(17) -0.0087(16) -0.0029(14) 0.0034(16)
C13 0.045(2) 0.076(3) 0.0172(17) -0.0003(17) 0.0072(15) 0.006(2)
C14 0.0388(18) 0.045(2) 0.0270(17) 0.0042(16) 0.0113(14) -0.0026(16)
C15 0.0225(14) 0.0203(16) 0.0211(15) -0.0004(12) 0.0042(11) 0.0030(12)
C16 0.0216(14) 0.0227(16) 0.0252(15) -0.0038(13) 0.0083(12) -0.0056(12)
C17 0.0390(18) 0.0298(19) 0.046(2) -0.0048(16) 0.0194(16) -0.0137(15)
C21 0.0291(16) 0.049(2) 0.0285(17) -0.0019(16) -0.0067(14) 0.0088(15)
C22 0.0298(17) 0.067(3) 0.0375(19) -0.020(2) -0.0126(15) 0.0166(19)
C23 0.0177(16) 0.071(3) 0.061(3) -0.033(2) -0.0076(17) 0.0039(18)
C24 0.0192(15) 0.047(2) 0.055(2) -0.0201(19) 0.0059(15) -0.0091(15)
C25 0.0182(14) 0.0293(18) 0.0268(16) -0.0137(14) 0.0037(12) -0.0039(13)
C31 0.0213(14) 0.039(2) 0.0215(15) 0.0037(14) 0.0033(12) -0.0029(14)
C32 0.0253(15) 0.040(2) 0.0234(15) -0.0034(14) 0.0024(12) 0.0110(14)
C33 0.0310(16) 0.0314(19) 0.0265(16) -0.0052(14) -0.0039(13) 0.0101(15)
C34 0.0282(15) 0.0230(17) 0.0266(16) -0.0029(13) -0.0007(13) -0.0005(13)
C35 0.0197(13) 0.0242(17) 0.0173(14) -0.0015(12) 0.0016(11) -0.0022(12)
C40 0.0316(16) 0.034(2) 0.0275(16) -0.0080(14) -0.0057(13) -0.0065(14)
C42 0.0224(15) 0.041(2) 0.0420(19) -0.0006(17) -0.0059(14) 0.0000(14)
C43 0.0303(17) 0.039(2) 0.046(2) 0.0044(17) 0.0000(15) -0.0184(16)
N10 0.0228(12) 0.0167(13) 0.0214(12) 0.0011(10) -0.0034(10) 0.0003(10)
N20 0.0199(12) 0.0339(16) 0.0252(13) -0.0013(12) -0.0031(10) -0.0006(11)
N30 0.0180(11) 0.0240(14) 0.0214(12) 0.0020(10) 0.0012(9) -0.0020(10)
N41 0.0233(13) 0.0290(15) 0.0336(14) 0.0003(12) -0.0016(11) -0.0079(11)
Cl1 0.0396(4) 0.0485(5) 0.0241(4) 0.0141(4) 0.0015(3) -0.0118(4)
Cl2 0.0362(4) 0.0203(4) 0.0584(6) 0.0056(4) 0.0133(4) 0.0023(3)
Co1 0.0180(2) 0.0218(2) 0.0214(2) 0.00719(17) -0.00263(14) -0.00401(16)
C1 0.077(11) 0.040(8) 0.044(6) 0.005(6) -0.002(8) -0.022(7)
O1 0.071(7) 0.061(7) 0.048(4) -0.006(4) -0.010(5) -0.007(5)

_geom_special_details            
;
 All s.u.'s (except the s.u. in the dihedral angle between two l.s. planes)
 are estimated using the full covariance matrix.  The cell s.u.'s are taken
 into account individually in the estimation of s.u.'s in distances, angles
 and torsion angles; correlations between s.u.'s in cell parameters are only
 used when they are defined by crystal symmetry.  An approximate (isotropic)
 treatment of cell s.u.'s is used for estimating s.u.'s involving l.s. planes.
;

loop_
_geom_bond_atom_site_label_1
_geom_bond_atom_site_label_2
_geom_bond_distance
_geom_bond_site_symmetry_2
_geom_bond_publ_flag
C11 N10 1.340(4) . ?
C11 C12 1.384(4) . ?
C11 C40 1.512(4) . ?
C12 C13 1.368(5) . ?
C13 C14 1.400(5) . ?
C14 C15 1.386(4) . ?
C15 N10 1.349(4) . ?
C15 C16 1.549(4) . ?
C16 C17 1.538(4) . ?
C16 C25 1.551(4) . ?
C16 C35 1.559(4) . ?
C21 N20 1.350(4) . ?
C21 C22 1.384(5) . ?
C22 C23 1.370(6) . ?
C23 C24 1.388(6) . ?
C24 C25 1.393(4) . ?
C25 N20 1.343(4) . ?
C31 N30 1.355(4) . ?
C31 C32 1.380(5) . ?
C32 C33 1.362(5) . ?
C33 C34 1.389(4) . ?
C34 C35 1.393(4) . ?
C35 N30 1.351(4) . ?
C40 N41 1.484(4) . ?
C42 N41 1.470(4) . ?
C43 N41 1.478(4) . ?
N10 Co1 2.102(2) . ?
N20 Co1 2.123(2) . ?
N30 Co1 2.197(3) . ?
N41 Co1 2.260(2) . ?
Cl1 Co1 2.3590(8) . ?
Cl2 Co1 2.4782(9) . ?
C1 O1 1.432(10) . ?

loop_
_geom_angle_atom_site_label_1
_geom_angle_atom_site_label_2
_geom_angle_atom_site_label_3
_geom_angle
_geom_angle_site_symmetry_1
_geom_angle_site_symmetry_3
_geom_angle_publ_flag
N10 C11 C12 121.3(3) . . ?
N10 C11 C40 115.9(3) . . ?
C12 C11 C40 122.8(3) . . ?
C13 C12 C11 118.5(3) . . ?
C12 C13 C14 120.4(3) . . ?
C15 C14 C13 118.4(3) . . ?
N10 C15 C14 120.4(3) . . ?
N10 C15 C16 116.1(2) . . ?
C14 C15 C16 123.5(3) . . ?
C17 C16 C15 109.3(2) . . ?
C17 C16 C25 110.3(2) . . ?
C15 C16 C25 109.9(2) . . ?
C17 C16 C35 110.0(2) . . ?
C15 C16 C35 109.5(2) . . ?
C25 C16 C35 107.7(2) . . ?
N20 C21 C22 122.3(4) . . ?
C23 C22 C21 118.2(4) . . ?
C22 C23 C24 120.3(3) . . ?
C23 C24 C25 118.8(4) . . ?
N20 C25 C24 121.0(3) . . ?
N20 C25 C16 116.9(2) . . ?
C24 C25 C16 122.1(3) . . ?
N30 C31 C32 123.5(3) . . ?
C33 C32 C31 118.7(3) . . ?
C32 C33 C34 119.0(3) . . ?
C33 C34 C35 120.2(3) . . ?
N30 C35 C34 120.7(3) . . ?
N30 C35 C16 118.5(3) . . ?
C34 C35 C16 120.8(3) . . ?
N41 C40 C11 111.9(2) . . ?
C11 N10 C15 120.8(3) . . ?
C11 N10 Co1 115.4(2) . . ?
C15 N10 Co1 122.91(18) . . ?
C25 N20 C21 119.4(3) . . ?
C25 N20 Co1 122.81(19) . . ?
C21 N20 Co1 117.5(2) . . ?
C35 N30 C31 117.9(3) . . ?
C35 N30 Co1 119.83(19) . . ?
C31 N30 Co1 122.2(2) . . ?
C42 N41 C43 109.1(2) . . ?
C42 N41 C40 109.6(3) . . ?
C43 N41 C40 109.4(3) . . ?
C42 N41 Co1 109.93(19) . . ?
C43 N41 Co1 115.60(19) . . ?
C40 N41 Co1 103.04(16) . . ?
N10 Co1 N20 89.07(9) . . ?
N10 Co1 N30 79.74(9) . . ?
N20 Co1 N30 79.73(9) . . ?
N10 Co1 N41 76.27(9) . . ?
N20 Co1 N41 163.92(9) . . ?
N30 Co1 N41 103.67(9) . . ?
N10 Co1 Cl1 165.96(7) . . ?
N20 Co1 Cl1 101.69(7) . . ?
N30 Co1 Cl1 93.21(7) . . ?
N41 Co1 Cl1 93.86(7) . . ?
N10 Co1 Cl2 92.81(7) . . ?
N20 Co1 Cl2 87.02(8) . . ?
N30 Co1 Cl2 164.84(6) . . ?
N41 Co1 Cl2 87.13(7) . . ?
Cl1 Co1 Cl2 96.68(3) . . ?

loop_
_geom_torsion_atom_site_label_1
_geom_torsion_atom_site_label_2
_geom_torsion_atom_site_label_3
_geom_torsion_atom_site_label_4
_geom_torsion
_geom_torsion_site_symmetry_1
_geom_torsion_site_symmetry_2
_geom_torsion_site_symmetry_3
_geom_torsion_site_symmetry_4
_geom_torsion_publ_flag
N10 C11 C12 C13 0.6(5) . . . . ?
C40 C11 C12 C13 178.3(3) . . . . ?
C11 C12 C13 C14 2.4(5) . . . . ?
C12 C13 C14 C15 -1.8(5) . . . . ?
C13 C14 C15 N10 -1.8(5) . . . . ?
C13 C14 C15 C16 176.4(3) . . . . ?
N10 C15 C16 C17 170.2(3) . . . . ?
C14 C15 C16 C17 -8.1(4) . . . . ?
N10 C15 C16 C25 -68.6(3) . . . . ?
C14 C15 C16 C25 113.1(3) . . . . ?
N10 C15 C16 C35 49.6(3) . . . . ?
C14 C15 C16 C35 -128.7(3) . . . . ?
N20 C21 C22 C23 0.9(5) . . . . ?
C21 C22 C23 C24 -1.7(5) . . . . ?
C22 C23 C24 C25 0.6(5) . . . . ?
C23 C24 C25 N20 1.4(5) . . . . ?
C23 C24 C25 C16 -176.5(3) . . . . ?
C17 C16 C25 N20 -175.8(3) . . . . ?
C15 C16 C25 N20 63.5(3) . . . . ?
C35 C16 C25 N20 -55.7(3) . . . . ?
C17 C16 C25 C24 2.2(4) . . . . ?
C15 C16 C25 C24 -118.5(3) . . . . ?
C35 C16 C25 C24 122.3(3) . . . . ?
N30 C31 C32 C33 -0.8(5) . . . . ?
C31 C32 C33 C34 0.4(4) . . . . ?
C32 C33 C34 C35 0.9(4) . . . . ?
C33 C34 C35 N30 -2.1(4) . . . . ?
C33 C34 C35 C16 175.7(3) . . . . ?
C17 C16 C35 N30 179.8(3) . . . . ?
C15 C16 C35 N30 -60.0(3) . . . . ?
C25 C16 C35 N30 59.6(3) . . . . ?
C17 C16 C35 C34 2.0(4) . . . . ?
C15 C16 C35 C34 122.2(3) . . . . ?
C25 C16 C35 C34 -118.3(3) . . . . ?
N10 C11 C40 N41 -21.3(4) . . . . ?
C12 C11 C40 N41 160.9(3) . . . . ?
C12 C11 N10 C15 -4.2(4) . . . . ?
C40 C11 N10 C15 177.9(3) . . . . ?
C12 C11 N10 Co1 165.1(2) . . . . ?
C40 C11 N10 Co1 -12.8(3) . . . . ?
C14 C15 N10 C11 4.7(4) . . . . ?
C16 C15 N10 C11 -173.6(3) . . . . ?
C14 C15 N10 Co1 -163.7(2) . . . . ?
C16 C15 N10 Co1 18.0(3) . . . . ?
C24 C25 N20 C21 -2.2(4) . . . . ?
C16 C25 N20 C21 175.8(3) . . . . ?
C24 C25 N20 Co1 172.4(2) . . . . ?
C16 C25 N20 Co1 -9.6(4) . . . . ?
C22 C21 N20 C25 1.1(5) . . . . ?
C22 C21 N20 Co1 -173.8(3) . . . . ?
C34 C35 N30 C31 1.8(4) . . . . ?
C16 C35 N30 C31 -176.1(2) . . . . ?
C34 C35 N30 Co1 179.5(2) . . . . ?
C16 C35 N30 Co1 1.7(3) . . . . ?
C32 C31 N30 C35 -0.4(4) . . . . ?
C32 C31 N30 Co1 -178.1(2) . . . . ?
C11 C40 N41 C42 -76.9(3) . . . . ?
C11 C40 N41 C43 163.5(3) . . . . ?
C11 C40 N41 Co1 40.0(3) . . . . ?
C11 N10 Co1 N20 -145.5(2) . . . . ?
C15 N10 Co1 N20 23.5(2) . . . . ?
C11 N10 Co1 N30 134.7(2) . . . . ?
C15 N10 Co1 N30 -56.3(2) . . . . ?
C11 N10 Co1 N41 27.8(2) . . . . ?
C15 N10 Co1 N41 -163.2(2) . . . . ?
C11 N10 Co1 Cl1 74.0(4) . . . . ?
C15 N10 Co1 Cl1 -116.9(3) . . . . ?
C11 N10 Co1 Cl2 -58.6(2) . . . . ?
C15 N10 Co1 Cl2 110.4(2) . . . . ?
C25 N20 Co1 N10 -28.1(2) . . . . ?
C21 N20 Co1 N10 146.7(2) . . . . ?
C25 N20 Co1 N30 51.7(2) . . . . ?
C21 N20 Co1 N30 -133.6(2) . . . . ?
C25 N20 Co1 N41 -52.1(5) . . . . ?
C21 N20 Co1 N41 122.6(4) . . . . ?
C25 N20 Co1 Cl1 142.8(2) . . . . ?
C21 N20 Co1 Cl1 -42.4(2) . . . . ?
C25 N20 Co1 Cl2 -120.9(2) . . . . ?
C21 N20 Co1 Cl2 53.8(2) . . . . ?
C35 N30 Co1 N10 44.4(2) . . . . ?
C31 N30 Co1 N10 -137.9(2) . . . . ?
C35 N30 Co1 N20 -46.5(2) . . . . ?
C31 N30 Co1 N20 131.1(2) . . . . ?
C35 N30 Co1 N41 117.4(2) . . . . ?
C31 N30 Co1 N41 -64.9(2) . . . . ?
C35 N30 Co1 Cl1 -147.8(2) . . . . ?
C31 N30 Co1 Cl1 29.8(2) . . . . ?
C35 N30 Co1 Cl2 -17.1(4) . . . . ?
C31 N30 Co1 Cl2 160.6(2) . . . . ?
C42 N41 Co1 N10 81.2(2) . . . . ?
C43 N41 Co1 N10 -154.7(2) . . . . ?
C40 N41 Co1 N10 -35.5(2) . . . . ?
C42 N41 Co1 N20 106.0(4) . . . . ?
C43 N41 Co1 N20 -129.9(4) . . . . ?
C40 N41 Co1 N20 -10.7(5) . . . . ?
C42 N41 Co1 N30 5.6(2) . . . . ?
C43 N41 Co1 N30 129.6(2) . . . . ?
C40 N41 Co1 N30 -111.1(2) . . . . ?
C42 N41 Co1 Cl1 -88.7(2) . . . . ?
C43 N41 Co1 Cl1 35.4(2) . . . . ?
C40 N41 Co1 Cl1 154.61(19) . . . . ?
C42 N41 Co1 Cl2 174.8(2) . . . . ?
C43 N41 Co1 Cl2 -61.1(2) . . . . ?
C40 N41 Co1 Cl2 58.10(19) . . . . ?

loop_
_geom_hbond_atom_site_label_D
_geom_hbond_atom_site_label_H
_geom_hbond_atom_site_label_A
_geom_hbond_distance_DH
_geom_hbond_distance_HA
_geom_hbond_distance_DA
_geom_hbond_angle_DHA
_geom_hbond_site_symmetry_A
O1 H1 Cl2 0.84 2.56 3.384(12) 166.7 3_665

_diffrn_measured_fraction_theta_max 0.998
_diffrn_reflns_theta_full        25.00
_diffrn_measured_fraction_theta_full 0.998
_refine_diff_density_max         1.056
_refine_diff_density_min         -0.432
_refine_diff_density_rms         0.067

